NAME: usa115475
TYPE: TSP
COMMENT: 115,474 towns and cities in the United States
COMMENT: Created July 7, 2012, www.math.uwaterloo/tsp/data/usa/
DIMENSION: 5
EDGE_WEIGHT_TYPE: EUC_2D
NODE_COORD_SECTION
1 0.0 0.0
2 1.0 0.0
3 1.0 0.5
4 1.0 1.0
5 0.0 1.0
6 0.65 0.2
7 0.9 0.1
8 0.1 0.3
9 0.1 0.77
10 0.6 0.9
11 0.2 0.1
